(declare-fun C1 () Real)
(declare-fun C2 () Real)
(declare-fun C3 () Real)
(declare-fun C4 () Real)
(declare-fun C5 () Real)
(declare-fun C6 () Real)
(declare-fun C7 () Real)
(declare-fun C8 () Real)
(declare-fun C9 () Real)
(declare-fun C10 () Real)
(declare-fun k () Real)
(assert (let 
(( $goal (<= (+ (/ C1 895 ) (/ C2 1014 ) (/ C3 1078 ) (/ C4 1168 ) (/ C5 1177 ) (/ C6 1191 ) (/ C7 1541 ) (/ C8 2381 ) (/ C9 2956 ) (/ C10 4230 ) ) k ) ))
(let 
(($phi ( and ( or  (>= 895 (+  (* 1 C1)  (* 0 C2)  (* 0 C3)  (* 0 C4)  (* 0 C5)  (* 0 C6)  (* 0 C7)  (* 0 C8)  (* 0 C9)  (* 0 C10) )) ) ( or  (>= 895 (+  (* 1 C1)  (* 1 C2)  (* 0 C3)  (* 0 C4)  (* 0 C5)  (* 0 C6)  (* 0 C7)  (* 0 C8)  (* 0 C9)  (* 0 C10) ))  (>= 1014 (+  (* 2 C1)  (* 1 C2)  (* 0 C3)  (* 0 C4)  (* 0 C5)  (* 0 C6)  (* 0 C7)  (* 0 C8)  (* 0 C9)  (* 0 C10) )) ) ( or  (>= 895 (+  (* 1 C1)  (* 1 C2)  (* 1 C3)  (* 0 C4)  (* 0 C5)  (* 0 C6)  (* 0 C7)  (* 0 C8)  (* 0 C9)  (* 0 C10) ))  (>= 1014 (+  (* 2 C1)  (* 1 C2)  (* 1 C3)  (* 0 C4)  (* 0 C5)  (* 0 C6)  (* 0 C7)  (* 0 C8)  (* 0 C9)  (* 0 C10) ))  (>= 1078 (+  (* 2 C1)  (* 2 C2)  (* 1 C3)  (* 0 C4)  (* 0 C5)  (* 0 C6)  (* 0 C7)  (* 0 C8)  (* 0 C9)  (* 0 C10) )) ) ( or  (>= 895 (+  (* 1 C1)  (* 1 C2)  (* 1 C3)  (* 1 C4)  (* 0 C5)  (* 0 C6)  (* 0 C7)  (* 0 C8)  (* 0 C9)  (* 0 C10) ))  (>= 1014 (+  (* 2 C1)  (* 1 C2)  (* 1 C3)  (* 1 C4)  (* 0 C5)  (* 0 C6)  (* 0 C7)  (* 0 C8)  (* 0 C9)  (* 0 C10) ))  (>= 1078 (+  (* 2 C1)  (* 2 C2)  (* 1 C3)  (* 1 C4)  (* 0 C5)  (* 0 C6)  (* 0 C7)  (* 0 C8)  (* 0 C9)  (* 0 C10) ))  (>= 1168 (+  (* 2 C1)  (* 2 C2)  (* 2 C3)  (* 1 C4)  (* 0 C5)  (* 0 C6)  (* 0 C7)  (* 0 C8)  (* 0 C9)  (* 0 C10) )) ) ( or  (>= 895 (+  (* 1 C1)  (* 1 C2)  (* 1 C3)  (* 1 C4)  (* 1 C5)  (* 0 C6)  (* 0 C7)  (* 0 C8)  (* 0 C9)  (* 0 C10) ))  (>= 1014 (+  (* 2 C1)  (* 1 C2)  (* 1 C3)  (* 1 C4)  (* 1 C5)  (* 0 C6)  (* 0 C7)  (* 0 C8)  (* 0 C9)  (* 0 C10) ))  (>= 1078 (+  (* 2 C1)  (* 2 C2)  (* 1 C3)  (* 1 C4)  (* 1 C5)  (* 0 C6)  (* 0 C7)  (* 0 C8)  (* 0 C9)  (* 0 C10) ))  (>= 1168 (+  (* 2 C1)  (* 2 C2)  (* 2 C3)  (* 1 C4)  (* 1 C5)  (* 0 C6)  (* 0 C7)  (* 0 C8)  (* 0 C9)  (* 0 C10) ))  (>= 1177 (+  (* 2 C1)  (* 2 C2)  (* 2 C3)  (* 2 C4)  (* 1 C5)  (* 0 C6)  (* 0 C7)  (* 0 C8)  (* 0 C9)  (* 0 C10) )) ) ( or  (>= 895 (+  (* 1 C1)  (* 1 C2)  (* 1 C3)  (* 1 C4)  (* 1 C5)  (* 1 C6)  (* 0 C7)  (* 0 C8)  (* 0 C9)  (* 0 C10) ))  (>= 1014 (+  (* 2 C1)  (* 1 C2)  (* 1 C3)  (* 1 C4)  (* 1 C5)  (* 1 C6)  (* 0 C7)  (* 0 C8)  (* 0 C9)  (* 0 C10) ))  (>= 1078 (+  (* 2 C1)  (* 2 C2)  (* 1 C3)  (* 1 C4)  (* 1 C5)  (* 1 C6)  (* 0 C7)  (* 0 C8)  (* 0 C9)  (* 0 C10) ))  (>= 1168 (+  (* 2 C1)  (* 2 C2)  (* 2 C3)  (* 1 C4)  (* 1 C5)  (* 1 C6)  (* 0 C7)  (* 0 C8)  (* 0 C9)  (* 0 C10) ))  (>= 1177 (+  (* 2 C1)  (* 2 C2)  (* 2 C3)  (* 2 C4)  (* 1 C5)  (* 1 C6)  (* 0 C7)  (* 0 C8)  (* 0 C9)  (* 0 C10) ))  (>= 1191 (+  (* 2 C1)  (* 2 C2)  (* 2 C3)  (* 2 C4)  (* 2 C5)  (* 1 C6)  (* 0 C7)  (* 0 C8)  (* 0 C9)  (* 0 C10) )) ) ( or  (>= 895 (+  (* 1 C1)  (* 1 C2)  (* 1 C3)  (* 1 C4)  (* 1 C5)  (* 1 C6)  (* 1 C7)  (* 0 C8)  (* 0 C9)  (* 0 C10) ))  (>= 1014 (+  (* 2 C1)  (* 1 C2)  (* 1 C3)  (* 1 C4)  (* 1 C5)  (* 1 C6)  (* 1 C7)  (* 0 C8)  (* 0 C9)  (* 0 C10) ))  (>= 1078 (+  (* 2 C1)  (* 2 C2)  (* 1 C3)  (* 1 C4)  (* 1 C5)  (* 1 C6)  (* 1 C7)  (* 0 C8)  (* 0 C9)  (* 0 C10) ))  (>= 1168 (+  (* 2 C1)  (* 2 C2)  (* 2 C3)  (* 1 C4)  (* 1 C5)  (* 1 C6)  (* 1 C7)  (* 0 C8)  (* 0 C9)  (* 0 C10) ))  (>= 1177 (+  (* 2 C1)  (* 2 C2)  (* 2 C3)  (* 2 C4)  (* 1 C5)  (* 1 C6)  (* 1 C7)  (* 0 C8)  (* 0 C9)  (* 0 C10) ))  (>= 1191 (+  (* 2 C1)  (* 2 C2)  (* 2 C3)  (* 2 C4)  (* 2 C5)  (* 1 C6)  (* 1 C7)  (* 0 C8)  (* 0 C9)  (* 0 C10) ))  (>= 1541 (+  (* 2 C1)  (* 2 C2)  (* 2 C3)  (* 2 C4)  (* 2 C5)  (* 2 C6)  (* 1 C7)  (* 0 C8)  (* 0 C9)  (* 0 C10) )) ) ( or  (>= 895 (+  (* 1 C1)  (* 1 C2)  (* 1 C3)  (* 1 C4)  (* 1 C5)  (* 1 C6)  (* 1 C7)  (* 1 C8)  (* 0 C9)  (* 0 C10) ))  (>= 1014 (+  (* 2 C1)  (* 1 C2)  (* 1 C3)  (* 1 C4)  (* 1 C5)  (* 1 C6)  (* 1 C7)  (* 1 C8)  (* 0 C9)  (* 0 C10) ))  (>= 1078 (+  (* 2 C1)  (* 2 C2)  (* 1 C3)  (* 1 C4)  (* 1 C5)  (* 1 C6)  (* 1 C7)  (* 1 C8)  (* 0 C9)  (* 0 C10) ))  (>= 1168 (+  (* 2 C1)  (* 2 C2)  (* 2 C3)  (* 1 C4)  (* 1 C5)  (* 1 C6)  (* 1 C7)  (* 1 C8)  (* 0 C9)  (* 0 C10) ))  (>= 1177 (+  (* 2 C1)  (* 2 C2)  (* 2 C3)  (* 2 C4)  (* 1 C5)  (* 1 C6)  (* 1 C7)  (* 1 C8)  (* 0 C9)  (* 0 C10) ))  (>= 1191 (+  (* 2 C1)  (* 2 C2)  (* 2 C3)  (* 2 C4)  (* 2 C5)  (* 1 C6)  (* 1 C7)  (* 1 C8)  (* 0 C9)  (* 0 C10) ))  (>= 1541 (+  (* 2 C1)  (* 2 C2)  (* 2 C3)  (* 2 C4)  (* 2 C5)  (* 2 C6)  (* 1 C7)  (* 1 C8)  (* 0 C9)  (* 0 C10) ))  (>= 1790 (+  (* 2 C1)  (* 2 C2)  (* 2 C3)  (* 2 C4)  (* 2 C5)  (* 2 C6)  (* 2 C7)  (* 1 C8)  (* 0 C9)  (* 0 C10) ))  (>= 2028 (+  (* 3 C1)  (* 2 C2)  (* 2 C3)  (* 2 C4)  (* 2 C5)  (* 2 C6)  (* 2 C7)  (* 1 C8)  (* 0 C9)  (* 0 C10) ))  (>= 2156 (+  (* 3 C1)  (* 3 C2)  (* 2 C3)  (* 2 C4)  (* 2 C5)  (* 2 C6)  (* 2 C7)  (* 1 C8)  (* 0 C9)  (* 0 C10) ))  (>= 2336 (+  (* 3 C1)  (* 3 C2)  (* 3 C3)  (* 2 C4)  (* 2 C5)  (* 2 C6)  (* 2 C7)  (* 1 C8)  (* 0 C9)  (* 0 C10) ))  (>= 2354 (+  (* 3 C1)  (* 3 C2)  (* 3 C3)  (* 3 C4)  (* 2 C5)  (* 2 C6)  (* 2 C7)  (* 1 C8)  (* 0 C9)  (* 0 C10) ))  (>= 2381 (+  (* 3 C1)  (* 3 C2)  (* 3 C3)  (* 3 C4)  (* 3 C5)  (* 2 C6)  (* 2 C7)  (* 1 C8)  (* 0 C9)  (* 0 C10) )) ) ( or  (>= 895 (+  (* 1 C1)  (* 1 C2)  (* 1 C3)  (* 1 C4)  (* 1 C5)  (* 1 C6)  (* 1 C7)  (* 1 C8)  (* 1 C9)  (* 0 C10) ))  (>= 1014 (+  (* 2 C1)  (* 1 C2)  (* 1 C3)  (* 1 C4)  (* 1 C5)  (* 1 C6)  (* 1 C7)  (* 1 C8)  (* 1 C9)  (* 0 C10) ))  (>= 1078 (+  (* 2 C1)  (* 2 C2)  (* 1 C3)  (* 1 C4)  (* 1 C5)  (* 1 C6)  (* 1 C7)  (* 1 C8)  (* 1 C9)  (* 0 C10) ))  (>= 1168 (+  (* 2 C1)  (* 2 C2)  (* 2 C3)  (* 1 C4)  (* 1 C5)  (* 1 C6)  (* 1 C7)  (* 1 C8)  (* 1 C9)  (* 0 C10) ))  (>= 1177 (+  (* 2 C1)  (* 2 C2)  (* 2 C3)  (* 2 C4)  (* 1 C5)  (* 1 C6)  (* 1 C7)  (* 1 C8)  (* 1 C9)  (* 0 C10) ))  (>= 1191 (+  (* 2 C1)  (* 2 C2)  (* 2 C3)  (* 2 C4)  (* 2 C5)  (* 1 C6)  (* 1 C7)  (* 1 C8)  (* 1 C9)  (* 0 C10) ))  (>= 1541 (+  (* 2 C1)  (* 2 C2)  (* 2 C3)  (* 2 C4)  (* 2 C5)  (* 2 C6)  (* 1 C7)  (* 1 C8)  (* 1 C9)  (* 0 C10) ))  (>= 1790 (+  (* 2 C1)  (* 2 C2)  (* 2 C3)  (* 2 C4)  (* 2 C5)  (* 2 C6)  (* 2 C7)  (* 1 C8)  (* 1 C9)  (* 0 C10) ))  (>= 2028 (+  (* 3 C1)  (* 2 C2)  (* 2 C3)  (* 2 C4)  (* 2 C5)  (* 2 C6)  (* 2 C7)  (* 1 C8)  (* 1 C9)  (* 0 C10) ))  (>= 2156 (+  (* 3 C1)  (* 3 C2)  (* 2 C3)  (* 2 C4)  (* 2 C5)  (* 2 C6)  (* 2 C7)  (* 1 C8)  (* 1 C9)  (* 0 C10) ))  (>= 2336 (+  (* 3 C1)  (* 3 C2)  (* 3 C3)  (* 2 C4)  (* 2 C5)  (* 2 C6)  (* 2 C7)  (* 1 C8)  (* 1 C9)  (* 0 C10) ))  (>= 2354 (+  (* 3 C1)  (* 3 C2)  (* 3 C3)  (* 3 C4)  (* 2 C5)  (* 2 C6)  (* 2 C7)  (* 1 C8)  (* 1 C9)  (* 0 C10) ))  (>= 2381 (+  (* 3 C1)  (* 3 C2)  (* 3 C3)  (* 3 C4)  (* 3 C5)  (* 2 C6)  (* 2 C7)  (* 1 C8)  (* 1 C9)  (* 0 C10) ))  (>= 2382 (+  (* 3 C1)  (* 3 C2)  (* 3 C3)  (* 3 C4)  (* 3 C5)  (* 2 C6)  (* 2 C7)  (* 2 C8)  (* 1 C9)  (* 0 C10) ))  (>= 2685 (+  (* 3 C1)  (* 3 C2)  (* 3 C3)  (* 3 C4)  (* 3 C5)  (* 3 C6)  (* 2 C7)  (* 2 C8)  (* 1 C9)  (* 0 C10) ))  (>= 2956 (+  (* 4 C1)  (* 3 C2)  (* 3 C3)  (* 3 C4)  (* 3 C5)  (* 3 C6)  (* 2 C7)  (* 2 C8)  (* 1 C9)  (* 0 C10) )) ) ( or  (>= 895 (+  (* 1 C1)  (* 1 C2)  (* 1 C3)  (* 1 C4)  (* 1 C5)  (* 1 C6)  (* 1 C7)  (* 1 C8)  (* 1 C9)  (* 1 C10) ))  (>= 1014 (+  (* 2 C1)  (* 1 C2)  (* 1 C3)  (* 1 C4)  (* 1 C5)  (* 1 C6)  (* 1 C7)  (* 1 C8)  (* 1 C9)  (* 1 C10) ))  (>= 1078 (+  (* 2 C1)  (* 2 C2)  (* 1 C3)  (* 1 C4)  (* 1 C5)  (* 1 C6)  (* 1 C7)  (* 1 C8)  (* 1 C9)  (* 1 C10) ))  (>= 1168 (+  (* 2 C1)  (* 2 C2)  (* 2 C3)  (* 1 C4)  (* 1 C5)  (* 1 C6)  (* 1 C7)  (* 1 C8)  (* 1 C9)  (* 1 C10) ))  (>= 1177 (+  (* 2 C1)  (* 2 C2)  (* 2 C3)  (* 2 C4)  (* 1 C5)  (* 1 C6)  (* 1 C7)  (* 1 C8)  (* 1 C9)  (* 1 C10) ))  (>= 1191 (+  (* 2 C1)  (* 2 C2)  (* 2 C3)  (* 2 C4)  (* 2 C5)  (* 1 C6)  (* 1 C7)  (* 1 C8)  (* 1 C9)  (* 1 C10) ))  (>= 1541 (+  (* 2 C1)  (* 2 C2)  (* 2 C3)  (* 2 C4)  (* 2 C5)  (* 2 C6)  (* 1 C7)  (* 1 C8)  (* 1 C9)  (* 1 C10) ))  (>= 1790 (+  (* 2 C1)  (* 2 C2)  (* 2 C3)  (* 2 C4)  (* 2 C5)  (* 2 C6)  (* 2 C7)  (* 1 C8)  (* 1 C9)  (* 1 C10) ))  (>= 2028 (+  (* 3 C1)  (* 2 C2)  (* 2 C3)  (* 2 C4)  (* 2 C5)  (* 2 C6)  (* 2 C7)  (* 1 C8)  (* 1 C9)  (* 1 C10) ))  (>= 2156 (+  (* 3 C1)  (* 3 C2)  (* 2 C3)  (* 2 C4)  (* 2 C5)  (* 2 C6)  (* 2 C7)  (* 1 C8)  (* 1 C9)  (* 1 C10) ))  (>= 2336 (+  (* 3 C1)  (* 3 C2)  (* 3 C3)  (* 2 C4)  (* 2 C5)  (* 2 C6)  (* 2 C7)  (* 1 C8)  (* 1 C9)  (* 1 C10) ))  (>= 2354 (+  (* 3 C1)  (* 3 C2)  (* 3 C3)  (* 3 C4)  (* 2 C5)  (* 2 C6)  (* 2 C7)  (* 1 C8)  (* 1 C9)  (* 1 C10) ))  (>= 2381 (+  (* 3 C1)  (* 3 C2)  (* 3 C3)  (* 3 C4)  (* 3 C5)  (* 2 C6)  (* 2 C7)  (* 1 C8)  (* 1 C9)  (* 1 C10) ))  (>= 2382 (+  (* 3 C1)  (* 3 C2)  (* 3 C3)  (* 3 C4)  (* 3 C5)  (* 2 C6)  (* 2 C7)  (* 2 C8)  (* 1 C9)  (* 1 C10) ))  (>= 2685 (+  (* 3 C1)  (* 3 C2)  (* 3 C3)  (* 3 C4)  (* 3 C5)  (* 3 C6)  (* 2 C7)  (* 2 C8)  (* 1 C9)  (* 1 C10) ))  (>= 2956 (+  (* 4 C1)  (* 3 C2)  (* 3 C3)  (* 3 C4)  (* 3 C5)  (* 3 C6)  (* 2 C7)  (* 2 C8)  (* 1 C9)  (* 1 C10) ))  (>= 3042 (+  (* 4 C1)  (* 3 C2)  (* 3 C3)  (* 3 C4)  (* 3 C5)  (* 3 C6)  (* 2 C7)  (* 2 C8)  (* 2 C9)  (* 1 C10) ))  (>= 3082 (+  (* 4 C1)  (* 4 C2)  (* 3 C3)  (* 3 C4)  (* 3 C5)  (* 3 C6)  (* 2 C7)  (* 2 C8)  (* 2 C9)  (* 1 C10) ))  (>= 3234 (+  (* 4 C1)  (* 4 C2)  (* 3 C3)  (* 3 C4)  (* 3 C5)  (* 3 C6)  (* 3 C7)  (* 2 C8)  (* 2 C9)  (* 1 C10) ))  (>= 3504 (+  (* 4 C1)  (* 4 C2)  (* 4 C3)  (* 3 C4)  (* 3 C5)  (* 3 C6)  (* 3 C7)  (* 2 C8)  (* 2 C9)  (* 1 C10) ))  (>= 3531 (+  (* 4 C1)  (* 4 C2)  (* 4 C3)  (* 4 C4)  (* 3 C5)  (* 3 C6)  (* 3 C7)  (* 2 C8)  (* 2 C9)  (* 1 C10) ))  (>= 3573 (+  (* 4 C1)  (* 4 C2)  (* 4 C3)  (* 4 C4)  (* 4 C5)  (* 3 C6)  (* 3 C7)  (* 2 C8)  (* 2 C9)  (* 1 C10) ))  (>= 3580 (+  (* 4 C1)  (* 4 C2)  (* 4 C3)  (* 4 C4)  (* 4 C5)  (* 4 C6)  (* 3 C7)  (* 2 C8)  (* 2 C9)  (* 1 C10) ))  (>= 4056 (+  (* 5 C1)  (* 4 C2)  (* 4 C3)  (* 4 C4)  (* 4 C5)  (* 4 C6)  (* 3 C7)  (* 2 C8)  (* 2 C9)  (* 1 C10) ))  (>= 4230 (+  (* 5 C1)  (* 5 C2)  (* 4 C3)  (* 4 C4)  (* 4 C5)  (* 4 C6)  (* 3 C7)  (* 2 C8)  (* 2 C9)  (* 1 C10) )) )  (and (>= C1 8) (>= C2 10) (>= C3 10) (>= C4 11) (>= C5 11) (>= C6 11) (>= C7 15) (>= C8 23) (>= C9 29) (>= C10 42) )  (and (<= C1 435) (<= C2 493) (<= C3 525) (<= C4 568) (<= C5 573) (<= C6 580) (<= C7 750) (<= C8 1159) (<= C9 1439) (<= C10 2060) ) )))
(=> $phi $goal))))